100
30
12
31
2
19
1
1
16
14
9
8
15
8
8
1
24
4
15
2
31
1
32
8
6
8
32
24
15
15
7
7
6
5
5
2
1
6
32
10
14
10
32
13
1
6
4
5
7
12
12
32
32
9
16
30
21
16
2
14
12
6
6
9
21
32
32
15
5
12
6
31
22
4
9
9
4
4
3
2
31
22
8
1
32
9
26
3
31
28
21
6
12
9
32
19
4
6
4
31
19
11